outputs/case_329.model.txt
capital_adequacy_ratio = 100
supervision_imposed = True
net_worth_ratio = 3
regulatory_limit_non_loan_set = False
person_type = 4
is_self = False
capital_level_2_measures_completed = False
net_worth = 1000000
capital_level_3_measures_completed = False
is_responsible_person_of_enterprise = False
capital_level_4_measures_completed = False
company_law_related_enterprise = True
regulatory_limit_set = False
blood_relation_degree = 3
is_spouse = False
internal_handling_established = True
loan_and_other_transaction_limit = 0
internal_handling_system_established = True
violation_internal_control_penalty = False
internal_control_and_audit_established = True
capital_level_2_measures_executed = False
capital_level = 0
same_person = False
internal_control_executed = True
violation_internal_handling_penalty = False
supervision_restriction = True
non_loan_transaction_limit = 0
same_related_enterprise = True
penalty = False
internal_handling_executed = True
internal_control_established = True
capital_level_4_measures_executed = False
same_related_person = False
capital_level_3_measures_executed = False